102     4       
10      10      10      10      
0       0       0       0       0       11      2       3       5       6       7       9       10      11      12      13      18      
1       0       1       0       0       2       4       17      
4       0       3       0       1       2       4       15      
1       2       0       0       1       4       8       19      24      30      
1       0       1       1       0       8       17      20      21      23      24      26      30      34      
8       0       1       0       2       4       8       17      26      30      
5       5       2       0       0       5       14      19      24      25      29      
4       2       0       1       0       7       20      21      22      23      27      28      34      
4       0       4       3       0       6       16      25      27      29      30      31      
9       0       0       2       1       8       20      22      25      27      28      30      31      34      
4       0       0       1       2       6       17      21      22      30      34      35      
3       0       2       0       2       7       17      25      29      30      31      33      35      
4       0       1       1       0       6       20      24      25      26      27      28      
1       1       0       5       0       8       27      28      30      32      34      35      37      39      
3       3       0       0       2       7       25      26      29      34      36      40      41      
5       0       0       3       2       2       19      28      
6       0       2       0       2       8       27      28      32      36      37      39      40      41      
2       0       0       1       5       8       27      28      32      36      37      39      40      41      
1       2       1       0       0       7       26      33      34      36      38      40      41      
5       0       0       4       5       9       32      33      35      36      37      38      39      44      45      
1       3       0       2       0       5       25      33      40      41      45      
7       2       3       0       0       7       36      37      38      40      41      42      44      
8       0       2       0       1       5       29      39      43      44      45      
2       0       5       0       3       4       31      32      39      44      
4       0       2       2       0       6       32      37      38      43      44      50      
8       3       0       2       0       4       32      39      43      52      
2       3       0       2       0       9       42      44      45      46      47      49      52      55      64      
7       0       0       4       3       6       38      42      43      46      47      55      
7       4       0       0       2       5       37      38      42      47      55      
2       1       7       0       0       4       40      41      46      64      
3       5       4       0       0       3       40      41      46      
7       1       0       1       0       6       42      46      47      49      55      64      
5       0       0       3       3       6       43      46      49      52      53      55      
4       6       2       0       0       6       44      45      47      51      52      55      
4       2       0       3       0       5       41      46      52      58      64      
9       0       4       4       0       6       46      47      49      50      52      58      
8       4       3       0       0       6       46      49      52      57      58      64      
6       0       3       0       4       6       49      51      52      53      57      64      
10      3       0       2       0       5       49      50      51      57      64      
9       3       0       0       2       3       43      49      55      
2       0       3       0       2       5       47      49      51      53      56      
3       2       0       0       5       5       48      53      54      58      61      
9       0       2       2       0       4       48      54      58      61      
7       0       0       3       1       4       48      53      54      61      
2       2       3       0       0       3       50      59      62      
5       3       0       0       4       3       51      54      65      
8       2       0       0       3       7       54      57      61      63      65      66      71      
10      2       0       0       2       8       56      57      59      63      65      67      71      75      
6       3       0       4       0       6       54      59      63      65      66      69      
1       0       1       0       1       5       53      56      60      67      71      
2       2       2       0       0       7       59      60      61      63      66      67      71      
5       0       0       4       1       6       56      59      65      68      71      75      
1       1       0       1       0       7       63      65      66      69      75      76      80      
2       2       0       3       0       3       60      62      78      
8       3       0       4       0       5       60      69      72      75      78      
6       0       3       2       0       8       66      69      73      74      76      78      80      81      
10      0       1       1       0       8       68      69      73      76      78      80      81      101     
6       3       2       0       0       8       68      72      74      75      76      77      80      81      
2       1       0       0       1       9       70      72      74      76      78      80      81      82      101     
4       0       2       1       0       8       70      73      74      76      77      80      81      101     
9       2       0       2       0       8       68      70      72      75      76      78      80      81      
5       1       0       0       3       7       68      72      74      75      76      77      81      
4       2       0       5       0       6       73      74      77      78      81      101     
8       4       0       0       1       8       76      77      81      82      83      84      92      101     
4       0       3       2       0       6       72      73      79      84      91      101     
1       4       2       0       0       4       70      77      82      101     
7       0       0       2       2       8       77      79      80      82      83      85      86      91      
1       0       1       0       2       8       79      82      83      85      90      91      92      99      
5       0       3       2       0       6       77      82      83      84      85      86      
1       0       0       1       4       6       79      83      84      85      90      92      
7       0       3       2       0       5       77      81      82      88      91      
7       0       0       3       3       9       85      88      89      90      92      97      98      99      100     
1       0       2       0       4       4       82      83      85      99      
10      2       0       0       2       6       84      85      86      92      98      100     
6       0       3       0       2       5       82      87      96      97      101     
7       3       4       0       0       8       87      91      94      95      96      97      99      100     
6       0       2       2       0       7       89      90      93      96      98      99      100     
4       2       0       3       0       7       88      90      91      95      96      98      99      
2       4       1       0       0       5       88      94      95      98      100     
7       0       2       2       0       5       87      94      95      98      99      
6       0       2       0       2       2       85      95      
5       0       4       5       0       4       89      94      98      100     
6       2       0       2       0       4       88      96      97      98      
8       2       0       0       3       4       93      94      95      99      
10      0       0       1       2       3       87      94      96      
4       0       0       5       2       3       94      96      97      
6       2       0       1       0       1       93      
1       0       2       0       3       1       93      
3       0       4       1       0       1       95      
2       4       0       0       3       1       94      
9       1       1       0       0       1       93      
5       0       0       2       3       1       96      
9       0       0       4       2       1       102     
4       0       4       4       0       1       102     
8       2       0       0       1       1       102     
7       0       0       6       4       1       102     
5       0       2       0       3       1       102     
10      0       0       1       2       1       102     
2       3       0       2       0       1       102     
1       1       3       0       0       1       102     
9       2       0       0       6       1       102     
0       0       0       0       0       0       
